NAME : random1
TYPE : HCP
COMMENT : 
DIMENSION : 700
EDGE_DATA_FORMAT : EDGE_LIST
EDGE_DATA_SECTION
1 5
1 7
1 8
1 15
2 9
2 16
3 10
3 12
3 17
4 11
4 12
4 18
5 10
5 12
5 13
5 19
6 8
6 12
6 13
6 20
7 12
7 14
7 21
8 22
9 11
9 23
10 24
11 25
12 26
13 27
14 28
15 19
15 24
15 29
16 25
16 30
17 20
17 27
17 31
18 32
19 33
20 21
20 34
21 22
21 35
22 36
23 24
23 37
24 27
24 38
25 39
26 40
27 41
28 42
29 43
30 44
31 45
32 33
32 38
32 39
32 40
32 46
33 47
34 48
35 38
35 49
36 50
37 38
37 51
38 52
39 53
40 54
41 55
42 56
43 44
43 46
43 57
44 58
45 51
45 59
46 53
46 54
46 60
47 61
48 62
49 53
49 63
50 64
51 65
52 66
53 55
53 67
54 68
55 69
56 70
57 62
57 65
57 71
58 59
58 72
59 61
59 66
59 73
60 61
60 74
61 63
61 75
62 68
62 76
63 66
63 77
64 78
65 66
65 79
66 80
67 69
67 81
68 69
68 82
69 83
70 84
71 79
71 82
71 85
72 78
72 86
73 78
73 79
73 87
74 88
75 89
76 90
77 91
78 82
78 92
79 93
80 83
80 94
81 82
81 95
82 96
83 97
84 98
85 87
85 89
85 99
86 90
86 95
86 97
86 100
87 90
87 101
88 102
89 91
89 103
90 96
90 104
91 92
91 93
91 105
92 94
92 95
92 106
93 97
93 107
94 108
95 109
96 110
97 111
98 112
99 109
99 111
99 113
100 107
100 114
101 109
101 110
101 115
102 116
103 117
104 118
105 119
106 120
107 121
108 122
109 123
110 124
111 125
112 126
113 119
113 127
114 117
114 128
115 129
116 130
117 123
117 131
118 124
118 132
119 133
120 123
120 134
121 135
122 123
122 136
123 125
123 137
124 138
125 139
126 140
127 141
128 132
128 142
129 130
129 131
129 137
129 143
130 144
131 145
132 146
133 137
133 147
134 148
135 149
136 137
136 138
136 150
137 151
138 152
139 153
140 154
141 155
142 147
142 156
143 157
144 146
144 158
145 151
145 159
146 149
146 160
147 152
147 161
148 153
148 162
149 150
149 163
150 164
151 152
151 153
151 165
152 166
153 167
154 168
155 159
155 164
155 169
156 157
156 158
156 162
156 170
157 164
157 171
158 159
158 172
159 162
159 165
159 173
160 174
161 175
162 176
163 177
164 178
165 166
165 179
166 180
167 181
168 182
169 170
169 175
169 179
169 183
170 184
171 172
171 175
171 177
171 180
171 185
172 176
172 186
173 181
173 187
174 181
174 188
175 178
175 189
176 190
177 191
178 192
179 180
179 193
180 194
181 195
182 196
183 184
183 195
183 197
184 189
184 198
185 191
185 192
185 199
186 200
187 189
187 192
187 195
187 201
188 192
188 202
189 203
190 204
191 205
192 206
193 207
194 208
195 209
196 210
197 200
197 207
197 211
198 206
198 212
199 203
199 208
199 213
200 209
200 214
201 203
201 215
202 208
202 216
203 217
204 218
205 209
205 219
206 208
206 220
207 221
208 222
209 223
210 224
211 215
211 220
211 223
211 225
212 223
212 226
213 219
213 227
214 228
215 229
216 221
216 230
217 231
218 220
218 232
219 220
219 233
220 234
221 235
222 236
223 237
224 238
225 232
225 234
225 236
225 239
226 240
227 241
228 230
228 232
228 235
228 242
229 230
229 234
229 243
230 232
230 233
230 235
230 244
231 245
232 233
232 237
232 246
233 247
234 248
235 249
236 250
237 251
238 252
239 249
239 253
240 242
240 247
240 254
241 249
241 251
241 255
242 256
243 247
243 257
244 245
244 258
245 259
246 260
247 261
248 262
249 263
250 264
251 265
252 266
253 267
254 268
255 258
255 265
255 269
256 270
257 261
257 264
257 271
258 272
259 262
259 273
260 274
261 265
261 275
262 276
263 264
263 277
264 278
265 279
266 280
267 270
267 277
267 278
267 281
268 282
269 270
269 278
269 283
270 275
270 284
271 285
272 277
272 286
273 287
274 288
275 289
276 290
277 291
278 292
279 293
280 294
281 282
281 291
281 295
282 283
282 288
282 296
283 293
283 297
284 290
284 298
285 299
286 289
286 291
286 300
287 301
288 302
289 303
290 291
290 304
291 305
292 306
293 307
294 308
295 299
295 301
295 309
296 310
297 311
298 300
298 312
299 300
299 304
299 305
299 313
300 304
300 314
301 307
301 315
302 304
302 306
302 307
302 316
303 305
303 307
303 317
304 318
305 319
306 320
307 321
308 322
309 312
309 320
309 323
310 324
311 317
311 325
312 326
313 327
314 328
315 329
316 320
316 330
317 331
318 332
319 333
320 334
321 335
322 336
323 325
323 327
323 330
323 334
323 337
324 338
325 333
325 339
326 340
327 334
327 341
328 330
328 334
328 342
329 331
329 343
330 344
331 345
332 346
333 347
334 348
335 349
336 350
337 344
337 349
337 351
338 342
338 352
339 347
339 353
340 344
340 354
341 348
341 355
342 349
342 356
343 349
343 357
344 346
344 348
344 358
345 347
345 359
346 360
347 361
348 362
349 363
350 364
351 363
351 365
352 363
352 366
353 357
353 363
353 367
354 360
354 368
355 369
356 361
356 370
357 359
357 361
357 371
358 362
358 372
359 373
360 362
360 374
361 363
361 375
362 376
363 377
364 378
365 379
366 369
366 375
366 380
367 368
367 371
367 373
367 381
368 371
368 375
368 382
369 376
369 383
370 373
370 384
371 385
372 374
372 386
373 387
374 388
375 376
375 389
376 390
377 391
378 392
379 393
380 390
380 394
381 386
381 387
381 390
381 395
382 384
382 391
382 396
383 397
384 398
385 387
385 388
385 399
386 387
386 400
387 401
388 390
388 402
389 403
390 404
391 405
392 406
393 407
394 400
394 408
395 409
396 397
396 410
397 411
398 401
398 412
399 413
400 403
400 414
401 402
401 403
401 415
402 416
403 417
404 418
405 419
406 420
407 421
408 411
408 415
408 422
409 423
410 416
410 419
410 424
411 416
411 425
412 418
412 426
413 415
413 416
413 427
414 419
414 428
415 418
415 429
416 418
416 430
417 431
418 432
419 433
420 434
421 423
421 432
421 435
422 427
422 430
422 433
422 436
423 427
423 431
423 437
424 438
425 426
425 427
425 431
425 439
426 427
426 429
426 440
427 430
427 441
428 442
429 443
430 431
430 444
431 445
432 446
433 447
434 448
435 449
436 440
436 450
437 451
438 452
439 453
440 454
441 455
442 445
442 456
443 457
444 445
444 458
445 459
446 460
447 461
448 462
449 453
449 460
449 463
450 455
450 457
450 464
451 452
451 455
451 465
452 453
452 466
453 458
453 467
454 468
455 461
455 469
456 470
457 471
458 472
459 473
460 461
460 474
461 475
462 476
463 464
463 468
463 477
464 467
464 468
464 471
464 478
465 468
465 479
466 470
466 472
466 480
467 472
467 473
467 481
468 482
469 483
470 484
471 485
472 486
473 487
474 488
475 489
476 490
477 478
477 491
478 480
478 487
478 492
479 484
479 493
480 486
480 487
480 494
481 495
482 496
483 488
483 489
483 497
484 498
485 499
486 487
486 500
487 501
488 502
489 503
490 504
491 505
492 503
492 506
493 507
494 495
494 496
494 508
495 496
495 499
495 509
496 498
496 501
496 510
497 500
497 511
498 512
499 501
499 513
500 514
501 515
502 503
502 516
503 517
504 518
505 506
505 512
505 519
506 511
506 515
506 520
507 521
508 522
509 512
509 523
510 514
510 524
511 517
511 525
512 526
513 527
514 516
514 528
515 529
516 530
517 531
518 532
519 533
520 534
521 535
522 523
522 536
523 537
524 528
524 531
524 538
525 531
525 539
526 527
526 529
526 540
527 529
527 541
528 542
529 530
529 543
530 544
531 545
532 546
533 534
533 538
533 547
534 535
534 544
534 548
535 538
535 539
535 549
536 537
536 538
536 550
537 541
537 551
538 552
539 553
540 543
540 554
541 543
541 555
542 556
543 557
544 558
545 559
546 560
547 557
547 561
548 554
548 555
548 562
549 563
550 559
550 564
551 565
552 557
552 566
553 554
553 567
554 568
555 569
556 559
556 570
557 571
558 572
559 573
560 574
561 564
561 575
562 564
562 572
562 576
563 565
563 566
563 567
563 577
564 566
564 578
565 566
565 579
566 580
567 568
567 570
567 573
567 581
568 582
569 583
570 584
571 585
572 586
573 587
574 588
575 585
575 589
576 590
577 591
578 587
578 592
579 583
579 593
580 594
581 587
581 595
582 586
582 596
583 597
584 598
585 599
586 600
587 601
588 602
589 593
589 595
589 597
589 603
590 597
590 604
591 594
591 595
591 605
592 595
592 596
592 601
592 606
593 607
594 608
595 609
596 600
596 610
597 598
597 611
598 600
598 612
599 613
600 614
601 615
602 616
603 611
603 615
603 617
604 606
604 609
604 618
605 609
605 619
606 615
606 620
607 610
607 611
607 613
607 615
607 621
608 614
608 622
609 611
609 615
609 623
610 624
611 615
611 625
612 626
613 615
613 627
614 628
615 629
616 630
617 621
617 628
617 631
618 624
618 632
619 627
619 633
620 621
620 634
621 629
621 635
622 636
623 624
623 628
623 637
624 628
624 629
624 638
625 639
626 628
626 640
627 641
628 642
629 643
630 644
631 645
632 634
632 646
633 639
633 647
634 640
634 648
635 642
635 649
636 650
637 651
638 639
638 652
639 641
639 653
640 654
641 643
641 655
642 656
643 657
644 658
645 649
645 656
645 657
645 659
646 660
647 661
648 662
649 663
650 664
651 665
652 666
653 667
654 657
654 668
655 669
656 670
657 671
658 672
659 673
660 663
660 665
660 666
660 674
661 671
661 675
662 668
662 676
663 677
664 678
665 667
665 679
666 667
666 671
666 680
667 670
667 681
668 669
668 682
669 671
669 683
670 684
671 685
672 686
673 682
673 687
674 688
675 689
676 690
677 691
678 679
678 692
679 693
680 694
681 695
682 696
683 697
684 698
685 699
686 700
687 688
689 690
691 692
693 694
695 696
697 698
699 700
-1
EOF
